(declare-const X String)
; ^([0-7]{3})$
(assert (not (str.in.re X (re.++ ((_ re.loop 3 3) (re.range "0" "7")) (str.to.re "\x0a")))))
; User-Agent\x3a\s+sErver\s+-~-GREATHost\x3a
(assert (not (str.in.re X (re.++ (str.to.re "User-Agent:") (re.+ (re.union (str.to.re " ") (str.to.re "\x09") (str.to.re "\x0a") (str.to.re "\x0c") (str.to.re "\x0d"))) (str.to.re "sErver") (re.+ (re.union (str.to.re " ") (str.to.re "\x09") (str.to.re "\x0a") (str.to.re "\x0c") (str.to.re "\x0d"))) (str.to.re "-~-GREATHost:\x0a")))))
; Runner.*\x2Ehtml[^\n\r]*NetControl\x2EServer\d+media\x2Edxcdirect\x2Ecom\.smx\?PASSW=SAH
(assert (not (str.in.re X (re.++ (str.to.re "Runner") (re.* re.allchar) (str.to.re ".html") (re.* (re.union (str.to.re "\x0a") (str.to.re "\x0d"))) (str.to.re "NetControl.Server\x13") (re.+ (re.range "0" "9")) (str.to.re "media.dxcdirect.com.smx?PASSW=SAH\x0a")))))
(check-sat)
